152 116251
1 16 2 32 15 3 14 38 28 27 42 58 63 64 59 62 61 41 60 86 107 106 105 83 87 104 111 112 82 88 103 145 144 135 136 119 118 137 138 143 142 141 139 140 117 109 108 85 84 110 120 133 134 146 121 132 131 147 148 149 130 129 122 123 128 127 151 152 150 126 125 124 116 115 96 91 79 71 53 72 78 92 95 94 93 77 50 49 48 74 76 75 73 51 47 23 22 11 7 10 8 9 17 18 40 19 21 20 54 69 70 52 46 31 30 29 4 13 5 26 25 24 12 6 39 43 57 65 66 67 56 55 44 68 81 102 101 89 100 113 114 99 98 97 90 80 45 33 37 34 36 35 
